(declare-const v1  Bool)
(get-qe (forall ((not Bool)(not Bool)(not Real)(not Real)(not Bool)(not Bool)(not Bool)(not Real))                                                                                                  v1           ))
(get-qe (forall ((not Bool)(not Bool)(q10 Bool) (q11 Bool) (q12 Bool) (q13 Real) (q14 Real) (q15 Real))                                                                                                                                                                                                                                          v1       ))
